Traveling Salesman Problem/TSP_generados/Aleatorio1620391569_15.tsp
NAME: Aleatorio1620391569_15.tsp
COMMENT: Randomly generated scenario
TYPE: TSP
DIMENSION: 15
EDGE_WEIGHT_TYPE: ATT
NODE_COORD_SECTION
1 20.41 16.67
2 48.99 8.06
3 31.22 25.25
4 14.33 6.47
5 5.76 37.77
6 43.71 46.57
7 44.69 35.92
8 3.02 22.88
9 8.76 49.89
10 13.79 26.91
11 12.02 37.79
12 38.01 46.04
13 9.28 0.56
14 19.1 35.44
15 41.88 31.37
