Traveling Salesman Problem/TSP_generados/Aleatorio1620391569_15.opt.tour
NAME: Aleatorio1620391569_15.opt.tour
COMMENT: Optimal solution for Aleatorio1620391569_15 (204.7471162928304)
TYPE: TOUR
DIMENSION: 15
TOUR_SECTION
1 4 13 8 10 14 11 5 9 12 6 7 15 2 3
-1
EOF
